100 100
3 31 26 3 92 24 47 18 5 96 15 20 23 15 63 81 99 81 47 18 20 43 7 34 24 3 86 49 15 49 50 7 45 85 5 92 2 50 10 47
9 39 47 36 15 7 18 14 77 35 39 46 15 5 76 71 82 11 76 5 27 19 22 18 5 50 52 20 49 91 7 76 36 45 28 16 87 83 8 48
54 2418 3666 216 2760 504 2538 252 770 6720 1170 920 690 150 9576 5751 8118 2673 10716 270 1080 2451 308 612 360 450 8944 980 2205 4459 350 532 4860 11475 140 2944 522 12450 240 4512